solution status: optimal solution found
objective value:                     116259.695193878
d11(0,0)                                            1 	(obj:0)
d11(1,1)                                            1 	(obj:0)
d11(1,2)                                            1 	(obj:0)
d11(2,3)                                            1 	(obj:0)
d11(2,4)                                            1 	(obj:0)
d11(2,5)                                            1 	(obj:0)
d11(2,6)                                            1 	(obj:0)
d12(3,8)                                            1 	(obj:0)
d12(3,10)                                           1 	(obj:0)
d12(3,12)                                           1 	(obj:0)
d12(3,14)                                           1 	(obj:0)
d21(2,3)                                            1 	(obj:0)
d21(3,7)                                            1 	(obj:0)
d21(3,8)                                            1 	(obj:0)
d21(3,11)                                           1 	(obj:0)
WB(2)                                3315.65537776224 	(obj:0)
y2(3,8)                              1385.48851144895 	(obj:0)
y2(3,10)                             1385.48851144895 	(obj:0)
y2(3,12)                             1385.48851144895 	(obj:0)
y2(3,14)                             1385.48851144895 	(obj:0)
STE(1,1)                             4137.75010111118 	(obj:0)
STE(0,0)                                         6300 	(obj:0)
STE(1,2)                                         5796 	(obj:0)
STE(2,3)                             1365.75010111118 	(obj:0)
STE(2,4)                                         3024 	(obj:0)
STE(2,5)                                         3024 	(obj:0)
STE(2,6)                             4682.24989888882 	(obj:0)
STE(3,7)                             861.750101111183 	(obj:0)
STE(3,8)                             2177.96418698769 	(obj:0)
STE(3,9)                                         2520 	(obj:0)
STE(3,10)                            3836.21408587651 	(obj:0)
STE(3,11)                                        2520 	(obj:0)
STE(3,12)                            3836.21408587651 	(obj:0)
STE(3,13)                            4178.24989888882 	(obj:0)
STE(3,14)                            5494.46398476532 	(obj:0)
AVE(2)                               3315.65537776224 	(obj:0)
WB(3)                                3315.65799770399 	(obj:0)
y1(1,1)                              1492.42490899994 	(obj:0)
y1(2,3)                                        2041.2 	(obj:0)
y1(2,4)                              548.775091000064 	(obj:0)
y1(2,5)                                        2041.2 	(obj:0)
y1(2,6)                              548.775091000064 	(obj:0)
AVE(3)                               3315.65799770399 	(obj:0)
WB(1)                                3248.33172520918 	(obj:0)
BG(1)                                4196.29249897956 	(obj:10)
BG(2)                                4756.26708163269 	(obj:10)
BG(3)                                2673.40993877551 	(obj:10)
AVE(1)                               3248.33172520918 	(obj:0)
